(set-logic QF_S)
(declare-fun _var_0xINPUT_110538_() String)
(declare-fun __woorpje_diseq_pref0_() String)
(declare-fun __woorpje_diseq_suf_l0_() String)
(declare-fun __woorpje_diseq_suf_r0_() String)
(assert (=(str.++  "AA1ND6MEXd" "")(str.++ __woorpje_diseq_pref0_  "E" __woorpje_diseq_suf_l0_  "")) )
(assert (=(str.++ _var_0xINPUT_110538_  "")(str.++ __woorpje_diseq_pref0_  "d" __woorpje_diseq_suf_r0_  "")) )
(check-sat)
